12 32 3 10
16 10 11 16 2 3 7 5 13 4 7 1 12 14 15 11 15 12 16 12 4 15 3 16 8 16 3 16 15 9 7 8 
2.01 2.66 6.37 4.94 3.99 5.15 5.28 3.7 1.55 5.46 1.57 7.48 1.3 2.34 4.1 7.59 0.42 0.37 0.52 7.72 4.1 3.24 5.24 5.15 4.15 0.16 0.19 7.83 7.92 3.16 4.21 6.16 
3.7 0.39 0 7.95 0.16 7.29 7.36 2.06 6.7 0.37 0.98 7.66 6.22 5.63 5.4 0.43 1.48 7.11 6.04 7.4 7.39 2.08 1.3 5.62 2.66 7.63 3.43 0.78 5.37 3.61 2.99 7.65 
5.36 4 5.2 0.06 5.7 3.01 2.03 4.99 4.97 6.03 7.04 7.87 4.57 7.37 7.32 5.34 2.91 2.26 3.33 2.41 0.91 7.9 0.9 6.49 7.74 6.45 1.24 1.78 7.32 1.16 7.82 5.55 
4 4 4 4 4 4 4 4 4 4 4 4 4 4 4 4 4 4 4 4 4 4 4 4 4 4 4 4 4 4 4 4 
4.25 3.81 2.01 4.83 6.9 5.93 5.54 4.64 4.52 3.74 7.52 4.6 5.74 7.66 2.24 5.99 5.24 4.78 4.53 1.38 4.27 2.4 5.71 1.78 1.81 4.58 2.95 4.8 6.75 5.61 1.28 6.38 
6.05 5 4.23 5.48 6.49 1.59 5.69 2.58 7.87 0.81 3.85 6.11 4.22 6.11 5.4 0.96 2.35 8 3.04 6.19 0.12 0.53 5.91 5.24 4.06 3.56 6.32 1.18 7.84 7.92 7.25 6.59 
1.76 1.63 5.64 1.59 7.04 3.88 1.85 1.91 2.41 1.97 1.84 5.13 4.87 7.99 0.89 2.64 0.06 5.78 5.14 3.66 3.77 3.49 2.75 0.57 7.95 2.42 5.56 0.57 6.92 0.94 0.78 0.19 
2.35 5.95 1 0.64 4.78 1.37 6.39 3.44 6.24 7.21 2.09 1.26 3.83 6.25 5.21 4.13 3.38 4.06 1.27 7.67 5.49 4.95 4.93 4.11 1.84 2.8 5.36 3.35 4.74 0.9 5.63 4.44 
2.3 6.73 3.05 2.1 1.97 7.2 3.42 4.06 0.81 5.32 5.89 4.53 6.31 7.96 3.46 6.68 2.4 6.04 2.02 4.12 3.21 6.54 2.93 6.05 6.55 4.85 1.4 5.72 1.07 0.13 4.45 5.91 
0.8 0.23 7.16 2.1 6.37 3.03 0.46 5.26 2.11 3.4 4.52 0.05 5.61 3.76 7.69 5.81 7.65 7.1 1.33 7.84 0.49 1.26 3.24 3.5 6.37 4.49 0.58 5.94 7 3.58 0.27 5.66 
0.68 2.22 4.37 4.72 5.61 6.13 4.84 2.72 3.39 6.06 5.39 2.09 1.89 1.28 6.45 3.79 1.48 6.52 2.04 1.79 7.98 6.3 2.42 2.17 6.13 4.43 5.09 2.58 1.39 3.78 0.71 5.68 
7.95 7.79 5.65 7.26 0.18 3.43 3.41 6.92 0.89 7.67 2 5.77 3.49 0.68 1.09 2.49 2.48 1.12 3.39 5.03 8 0.98 1 1.13 6.58 6.33 6.61 2.39 2.75 1.69 6.29 1.69 
1 1 1 1 1 1 1 1 1 1 1 1 1 1 1 1 1 1 1 1 1 1 1 1 1 1 1 1 1 1 1 1 
1 1 1 1 1 1 1 1 1 1 1 1 1 1 1 1 1 1 1 1 1 1 1 1 1 1 1 1 1 1 1 1 
1 1 1 1 1 1 1 1 1 1 1 1 1 1 1 1 1 1 1 1 1 1 1 1 1 1 1 1 1 1 1 1 
1 1 1 1 1 1 1 1 1 1 1 1 1 1 1 1 1 1 1 1 1 1 1 1 1 1 1 1 1 1 1 1 
1 1 1 1 1 1 1 1 1 1 1 1 1 1 1 1 1 1 1 1 1 1 1 1 1 1 1 1 1 1 1 1 
1 1 1 1 1 1 1 1 1 1 1 1 1 1 1 1 1 1 1 1 1 1 1 1 1 1 1 1 1 1 1 1 
1 1 1 1 1 1 1 1 1 1 1 1 1 1 1 1 1 1 1 1 1 1 1 1 1 1 1 1 1 1 1 1 
1 1 1 1 1 1 1 1 1 1 1 1 1 1 1 1 1 1 1 1 1 1 1 1 1 1 1 1 1 1 1 1 
1 1 1 1 1 1 1 1 1 1 1 1 1 1 1 1 1 1 1 1 1 1 1 1 1 1 1 1 1 1 1 1 
1 1 1 1 1 1 1 1 1 1 1 1 1 1 1 1 1 1 1 1 1 1 1 1 1 1 1 1 1 1 1 1 
1 1 1 1 1 1 1 1 1 1 1 1 1 1 1 1 1 1 1 1 1 1 1 1 1 1 1 1 1 1 1 1 
1 1 1 1 1 1 1 1 1 1 1 1 1 1 1 1 1 1 1 1 1 1 1 1 1 1 1 1 1 1 1 1 
0.01 0.01 0.01 0.01 0.01 0.01 0.01 0.01 0.01 0.01 0.01 0.01 0.01 0.01 0.01 0.01 0.01 0.01 0.01 0.01 0.01 0.01 0.01 0.01 0.01 0.01 0.01 0.01 0.01 0.01 0.01 0.01 
0.02 0.02 0.02 0.02 0.02 0.02 0.02 0.02 0.02 0.02 0.02 0.02 0.02 0.02 0.02 0.02 0.02 0.02 0.02 0.02 0.02 0.02 0.02 0.02 0.02 0.02 0.02 0.02 0.02 0.02 0.02 0.02 
0.03 0.03 0.03 0.03 0.03 0.03 0.03 0.03 0.03 0.03 0.03 0.03 0.03 0.03 0.03 0.03 0.03 0.03 0.03 0.03 0.03 0.03 0.03 0.03 0.03 0.03 0.03 0.03 0.03 0.03 0.03 0.03 
0.04 0.04 0.04 0.04 0.04 0.04 0.04 0.04 0.04 0.04 0.04 0.04 0.04 0.04 0.04 0.04 0.04 0.04 0.04 0.04 0.04 0.04 0.04 0.04 0.04 0.04 0.04 0.04 0.04 0.04 0.04 0.04 
0.125 0.125 0.125 0.125 0.125 0.125 0.125 0.125 0.125 0.125 0.125 0.125 0.125 0.125 0.125 0.125 0.125 0.125 0.125 0.125 0.125 0.125 0.125 0.125 0.125 0.125 0.125 0.125 0.125 0.125 0.125 0.125 
0.25 0.25 0.25 0.25 0.25 0.25 0.25 0.25 0.25 0.25 0.25 0.25 0.25 0.25 0.25 0.25 0.25 0.25 0.25 0.25 0.25 0.25 0.25 0.25 0.25 0.25 0.25 0.25 0.25 0.25 0.25 0.25 
0.375 0.375 0.375 0.375 0.375 0.375 0.375 0.375 0.375 0.375 0.375 0.375 0.375 0.375 0.375 0.375 0.375 0.375 0.375 0.375 0.375 0.375 0.375 0.375 0.375 0.375 0.375 0.375 0.375 0.375 0.375 0.375 
0.5 0.5 0.5 0.5 0.5 0.5 0.5 0.5 0.5 0.5 0.5 0.5 0.5 0.5 0.5 0.5 0.5 0.5 0.5 0.5 0.5 0.5 0.5 0.5 0.5 0.5 0.5 0.5 0.5 0.5 0.5 0.5 
0.625 0.625 0.625 0.625 0.625 0.625 0.625 0.625 0.625 0.625 0.625 0.625 0.625 0.625 0.625 0.625 0.625 0.625 0.625 0.625 0.625 0.625 0.625 0.625 0.625 0.625 0.625 0.625 0.625 0.625 0.625 0.625 
0.75 0.75 0.75 0.75 0.75 0.75 0.75 0.75 0.75 0.75 0.75 0.75 0.75 0.75 0.75 0.75 0.75 0.75 0.75 0.75 0.75 0.75 0.75 0.75 0.75 0.75 0.75 0.75 0.75 0.75 0.75 0.75 
0.875 0.875 0.875 0.875 0.875 0.875 0.875 0.875 0.875 0.875 0.875 0.875 0.875 0.875 0.875 0.875 0.875 0.875 0.875 0.875 0.875 0.875 0.875 0.875 0.875 0.875 0.875 0.875 0.875 0.875 0.875 0.875 
1 1 1 1 1 1 1 1 1 1 1 1 1 1 1 1 1 1 1 1 1 1 1 1 1 1 1 1 1 1 1 1 
